p cnf 30 130
c For each vertex 0
1 2 3 0
-2 -3 0
-1 -3 0
-1 -2 0
c For each edge 0
-1 -4 0
-2 -5 0
-3 -6 0

-1 -13 0
-2 -14 0
-3 -15 0

-1 -16 0
-2 -17 0
-3 -18 0


c For each vertex 1
4 5 6 0
-5 -6 0
-4 -6 0
-4 -5 0
c For each edge 1
-4 -1 0
-5 -2 0
-6 -3 0

-4 -7 0
-5 -8 0
-6 -9 0

-4 -19 0
-5 -20 0
-6 -21 0


c For each vertex 2
7 8 9 0
-8 -9 0
-7 -9 0
-7 -8 0
c For each edge 2
-7 -4 0
-8 -5 0
-9 -6 0

-7 -10 0
-8 -11 0
-9 -12 0

-7 -22 0
-8 -23 0
-9 -24 0


c For each vertex 3
10 11 12 0
-11 -12 0
-10 -12 0
-10 -11 0
c For each edge 3
-10 -7 0
-11 -8 0
-12 -9 0

-10 -13 0
-11 -14 0
-12 -15 0

-10 -25 0
-11 -26 0
-12 -27 0


c For each vertex 4
13 14 15 0
-14 -15 0
-13 -15 0
-13 -14 0
c For each edge 4
-13 -1 0
-14 -2 0
-15 -3 0

-13 -10 0
-14 -11 0
-15 -12 0

-13 -28 0
-14 -29 0
-15 -30 0


c For each vertex 5
16 17 18 0
-17 -18 0
-16 -18 0
-16 -17 0
c For each edge 5
-16 -1 0
-17 -2 0
-18 -3 0

-16 -22 0
-17 -23 0
-18 -24 0

-16 -25 0
-17 -26 0
-18 -27 0


c For each vertex 6
19 20 21 0
-20 -21 0
-19 -21 0
-19 -20 0
c For each edge 6
-19 -4 0
-20 -5 0
-21 -6 0

-19 -25 0
-20 -26 0
-21 -27 0

-19 -28 0
-20 -29 0
-21 -30 0


c For each vertex 7
22 23 24 0
-23 -24 0
-22 -24 0
-22 -23 0
c For each edge 7
-22 -7 0
-23 -8 0
-24 -9 0

-22 -16 0
-23 -17 0
-24 -18 0

-22 -28 0
-23 -29 0
-24 -30 0


c For each vertex 8
25 26 27 0
-26 -27 0
-25 -27 0
-25 -26 0
c For each edge 8
-25 -10 0
-26 -11 0
-27 -12 0

-25 -16 0
-26 -17 0
-27 -18 0

-25 -19 0
-26 -20 0
-27 -21 0


c For each vertex 9
28 29 30 0
-29 -30 0
-28 -30 0
-28 -29 0
c For each edge 9
-28 -13 0
-29 -14 0
-30 -15 0

-28 -19 0
-29 -20 0
-30 -21 0

-28 -22 0
-29 -23 0
-30 -24 0


